100
128
4
2
37
23
40
8
15
7
26
3
27
9
32
13
15
12
1
17
1
21
11
15
13
2
3
9
3
19
21
4
5
33
4
7
12
33
25
21
12
10
18
8
4
53
36
44
45
56
17
44
5
43
45
24
45
48
52
8
56
13
7
2
50
58
44
14
64
15
43
54
46
53
47
59
5
44
29
2
58
43
4
61
13
25
1
61
39
24
54
13
54
34
31
9
38
41
64
39
33
64